p cnf 432 372
-5 1 7 13 19 25 0
-4 2 8 14 20 26 0
-3 3 9 15 21 27 0
-2 4 10 16 22 28 0
-1 5 11 17 23 29 0
0 6 12 18 24 30 0
31 37 43 49 55 61 0
32 38 44 50 56 62 0
33 39 45 51 57 63 0
34 40 46 52 58 64 0
35 41 47 53 59 65 0
36 42 48 54 60 66 0
5 -1 0
5 -7 0
5 -13 0
5 -19 0
5 -25 0
-1 -7 0
-1 -13 0
-1 -19 0
-1 -25 0
-7 -13 0
-7 -19 0
-7 -25 0
-13 -19 0
-13 -25 0
-19 -25 0
4 -2 0
4 -8 0
4 -14 0
4 -20 0
4 -26 0
-2 -8 0
-2 -14 0
-2 -20 0
-2 -26 0
-8 -14 0
-8 -20 0
-8 -26 0
-14 -20 0
-14 -26 0
-20 -26 0
3 -3 0
3 -9 0
3 -15 0
3 -21 0
3 -27 0
-3 -9 0
-3 -15 0
-3 -21 0
-3 -27 0
-9 -15 0
-9 -21 0
-9 -27 0
-15 -21 0
-15 -27 0
-21 -27 0
2 -4 0
2 -10 0
2 -16 0
2 -22 0
2 -28 0
-4 -10 0
-4 -16 0
-4 -22 0
-4 -28 0
-10 -16 0
-10 -22 0
-10 -28 0
-16 -22 0
-16 -28 0
-22 -28 0
1 -5 0
1 -11 0
1 -17 0
1 -23 0
1 -29 0
-5 -11 0
-5 -17 0
-5 -23 0
-5 -29 0
-11 -17 0
-11 -23 0
-11 -29 0
-17 -23 0
-17 -29 0
-23 -29 0
0 -6 0
0 -12 0
0 -18 0
0 -24 0
0 -30 0
-6 -12 0
-6 -18 0
-6 -24 0
-6 -30 0
-12 -18 0
-12 -24 0
-12 -30 0
-18 -24 0
-18 -30 0
-24 -30 0
-31 -37 0
-31 -43 0
-31 -49 0
-31 -55 0
-31 -61 0
-37 -43 0
-37 -49 0
-37 -55 0
-37 -61 0
-43 -49 0
-43 -55 0
-43 -61 0
-49 -55 0
-49 -61 0
-55 -61 0
-32 -38 0
-32 -44 0
-32 -50 0
-32 -56 0
-32 -62 0
-38 -44 0
-38 -50 0
-38 -56 0
-38 -62 0
-44 -50 0
-44 -56 0
-44 -62 0
-50 -56 0
-50 -62 0
-56 -62 0
-33 -39 0
-33 -45 0
-33 -51 0
-33 -57 0
-33 -63 0
-39 -45 0
-39 -51 0
-39 -57 0
-39 -63 0
-45 -51 0
-45 -57 0
-45 -63 0
-51 -57 0
-51 -63 0
-57 -63 0
-34 -40 0
-34 -46 0
-34 -52 0
-34 -58 0
-34 -64 0
-40 -46 0
-40 -52 0
-40 -58 0
-40 -64 0
-46 -52 0
-46 -58 0
-46 -64 0
-52 -58 0
-52 -64 0
-58 -64 0
-35 -41 0
-35 -47 0
-35 -53 0
-35 -59 0
-35 -65 0
-41 -47 0
-41 -53 0
-41 -59 0
-41 -65 0
-47 -53 0
-47 -59 0
-47 -65 0
-53 -59 0
-53 -65 0
-59 -65 0
-36 -42 0
-36 -48 0
-36 -54 0
-36 -60 0
-36 -66 0
-42 -48 0
-42 -54 0
-42 -60 0
-42 -66 0
-48 -54 0
-48 -60 0
-48 -66 0
-54 -60 0
-54 -66 0
-60 -66 0
5 4 0
5 3 0
5 2 0
5 1 0
5 0 0
4 3 0
4 2 0
4 1 0
4 0 0
3 2 0
3 1 0
3 0 0
2 1 0
2 0 0
1 0 0
-1 -2 0
-1 -3 0
-1 -4 0
-1 -5 0
-1 -6 0
-2 -3 0
-2 -4 0
-2 -5 0
-2 -6 0
-3 -4 0
-3 -5 0
-3 -6 0
-4 -5 0
-4 -6 0
-5 -6 0
-7 -8 0
-7 -9 0
-7 -10 0
-7 -11 0
-7 -12 0
-8 -9 0
-8 -10 0
-8 -11 0
-8 -12 0
-9 -10 0
-9 -11 0
-9 -12 0
-10 -11 0
-10 -12 0
-11 -12 0
-13 -14 0
-13 -15 0
-13 -16 0
-13 -17 0
-13 -18 0
-14 -15 0
-14 -16 0
-14 -17 0
-14 -18 0
-15 -16 0
-15 -17 0
-15 -18 0
-16 -17 0
-16 -18 0
-17 -18 0
-19 -20 0
-19 -21 0
-19 -22 0
-19 -23 0
-19 -24 0
-20 -21 0
-20 -22 0
-20 -23 0
-20 -24 0
-21 -22 0
-21 -23 0
-21 -24 0
-22 -23 0
-22 -24 0
-23 -24 0
-25 -26 0
-25 -27 0
-25 -28 0
-25 -29 0
-25 -30 0
-26 -27 0
-26 -28 0
-26 -29 0
-26 -30 0
-27 -28 0
-27 -29 0
-27 -30 0
-28 -29 0
-28 -30 0
-29 -30 0
-31 -32 0
-31 -33 0
-31 -34 0
-31 -35 0
-31 -36 0
-32 -33 0
-32 -34 0
-32 -35 0
-32 -36 0
-33 -34 0
-33 -35 0
-33 -36 0
-34 -35 0
-34 -36 0
-35 -36 0
-37 -38 0
-37 -39 0
-37 -40 0
-37 -41 0
-37 -42 0
-38 -39 0
-38 -40 0
-38 -41 0
-38 -42 0
-39 -40 0
-39 -41 0
-39 -42 0
-40 -41 0
-40 -42 0
-41 -42 0
-43 -44 0
-43 -45 0
-43 -46 0
-43 -47 0
-43 -48 0
-44 -45 0
-44 -46 0
-44 -47 0
-44 -48 0
-45 -46 0
-45 -47 0
-45 -48 0
-46 -47 0
-46 -48 0
-47 -48 0
-49 -50 0
-49 -51 0
-49 -52 0
-49 -53 0
-49 -54 0
-50 -51 0
-50 -52 0
-50 -53 0
-50 -54 0
-51 -52 0
-51 -53 0
-51 -54 0
-52 -53 0
-52 -54 0
-53 -54 0
-55 -56 0
-55 -57 0
-55 -58 0
-55 -59 0
-55 -60 0
-56 -57 0
-56 -58 0
-56 -59 0
-56 -60 0
-57 -58 0
-57 -59 0
-57 -60 0
-58 -59 0
-58 -60 0
-59 -60 0
-61 -62 0
-61 -63 0
-61 -64 0
-61 -65 0
-61 -66 0
-62 -63 0
-62 -64 0
-62 -65 0
-62 -66 0
-63 -64 0
-63 -65 0
-63 -66 0
-64 -65 0
-64 -66 0
-65 -66 0
